inputs/factoring1023-10bit.dimacs
p cnf 964 2276
c Factors encoded in variables 1-10 and 11-20
c Target number: 1023
-21 0
22 0
-123 24 33 0
-123 -24 -33 0
123 24 -33 0
123 -24 33 0
-24 -33 124 0
24 33 -124 0
24 -124 0
33 -124 0
-25 -34 126 0
-25 -124 126 0
-34 -124 126 0
25 34 -126 0
25 124 -126 0
34 124 -126 0
-26 -35 128 0
-26 -126 128 0
-35 -126 128 0
26 35 -128 0
26 126 -128 0
35 126 -128 0
-27 -36 130 0
-27 -128 130 0
-36 -128 130 0
27 36 -130 0
27 128 -130 0
36 128 -130 0
-28 -37 132 0
-28 -130 132 0
-37 -130 132 0
28 37 -132 0
28 130 -132 0
37 130 -132 0
-29 -38 134 0
-29 -132 134 0
-38 -132 134 0
29 38 -134 0
29 132 -134 0
38 132 -134 0
-30 -39 136 0
-30 -134 136 0
-39 -134 136 0
30 39 -136 0
30 134 -136 0
39 134 -136 0
-31 -40 138 0
-31 -136 138 0
-40 -136 138 0
31 40 -138 0
31 136 -138 0
40 136 -138 0
-32 -41 140 0
-32 -138 140 0
-41 -138 140 0
32 41 -140 0
32 138 -140 0
41 138 -140 0
-141 42 140 0
-141 -42 -140 0
141 42 -140 0
141 -42 140 0
-42 -140 142 0
42 140 -142 0
42 -142 0
140 -142 0
-143 44 53 0
-143 -44 -53 0
143 44 -53 0
143 -44 53 0
-44 -53 144 0
44 53 -144 0
44 -144 0
53 -144 0
-45 -54 146 0
-45 -144 146 0
-54 -144 146 0
45 54 -146 0
45 144 -146 0
54 144 -146 0
-46 -55 148 0
-46 -146 148 0
-55 -146 148 0
46 55 -148 0
46 146 -148 0
55 146 -148 0
-47 -56 150 0
-47 -148 150 0
-56 -148 150 0
47 56 -150 0
47 148 -150 0
56 148 -150 0
-48 -57 152 0
-48 -150 152 0
-57 -150 152 0
48 57 -152 0
48 150 -152 0
57 150 -152 0
-49 -58 154 0
-49 -152 154 0
-58 -152 154 0
49 58 -154 0
49 152 -154 0
58 152 -154 0
-50 -59 156 0
-50 -154 156 0
-59 -154 156 0
50 59 -156 0
50 154 -156 0
59 154 -156 0
-51 -60 158 0
-51 -156 158 0
-60 -156 158 0
51 60 -158 0
51 156 -158 0
60 156 -158 0
-52 -61 160 0
-52 -158 160 0
-61 -158 160 0
52 61 -160 0
52 158 -160 0
61 158 -160 0
-161 62 160 0
-161 -62 -160 0
161 62 -160 0
161 -62 160 0
-62 -160 162 0
62 160 -162 0
62 -162 0
160 -162 0
-163 64 73 0
-163 -64 -73 0
163 64 -73 0
163 -64 73 0
-64 -73 164 0
64 73 -164 0
64 -164 0
73 -164 0
-65 -74 166 0
-65 -164 166 0
-74 -164 166 0
65 74 -166 0
65 164 -166 0
74 164 -166 0
-66 -75 168 0
-66 -166 168 0
-75 -166 168 0
66 75 -168 0
66 166 -168 0
75 166 -168 0
-67 -76 170 0
-67 -168 170 0
-76 -168 170 0
67 76 -170 0
67 168 -170 0
76 168 -170 0
-68 -77 172 0
-68 -170 172 0
-77 -170 172 0
68 77 -172 0
68 170 -172 0
77 170 -172 0
-69 -78 174 0
-69 -172 174 0
-78 -172 174 0
69 78 -174 0
69 172 -174 0
78 172 -174 0
-70 -79 176 0
-70 -174 176 0
-79 -174 176 0
70 79 -176 0
70 174 -176 0
79 174 -176 0
-71 -80 178 0
-71 -176 178 0
-80 -176 178 0
71 80 -178 0
71 176 -178 0
80 176 -178 0
-72 -81 180 0
-72 -178 180 0
-81 -178 180 0
72 81 -180 0
72 178 -180 0
81 178 -180 0
-181 82 180 0
-181 -82 -180 0
181 82 -180 0
181 -82 180 0
-82 -180 182 0
82 180 -182 0
82 -182 0
180 -182 0
-183 84 93 0
-183 -84 -93 0
183 84 -93 0
183 -84 93 0
-84 -93 184 0
84 93 -184 0
84 -184 0
93 -184 0
-85 -94 186 0
-85 -184 186 0
-94 -184 186 0
85 94 -186 0
85 184 -186 0
94 184 -186 0
-86 -95 188 0
-86 -186 188 0
-95 -186 188 0
86 95 -188 0
86 186 -188 0
95 186 -188 0
-87 -96 190 0
-87 -188 190 0
-96 -188 190 0
87 96 -190 0
87 188 -190 0
96 188 -190 0
-88 -97 192 0
-88 -190 192 0
-97 -190 192 0
88 97 -192 0
88 190 -192 0
97 190 -192 0
-89 -98 194 0
-89 -192 194 0
-98 -192 194 0
89 98 -194 0
89 192 -194 0
98 192 -194 0
-90 -99 196 0
-90 -194 196 0
-99 -194 196 0
90 99 -196 0
90 194 -196 0
99 194 -196 0
-91 -100 198 0
-91 -196 198 0
-100 -196 198 0
91 100 -198 0
91 196 -198 0
100 196 -198 0
-92 -101 200 0
-92 -198 200 0
-101 -198 200 0
92 101 -200 0
92 198 -200 0
101 198 -200 0
-201 102 200 0
-201 -102 -200 0
201 102 -200 0
201 -102 200 0
-102 -200 202 0
102 200 -202 0
102 -202 0
200 -202 0
-203 104 113 0
-203 -104 -113 0
203 104 -113 0
203 -104 113 0
-104 -113 204 0
104 113 -204 0
104 -204 0
113 -204 0
-105 -114 206 0
-105 -204 206 0
-114 -204 206 0
105 114 -206 0
105 204 -206 0
114 204 -206 0
-106 -115 208 0
-106 -206 208 0
-115 -206 208 0
106 115 -208 0
106 206 -208 0
115 206 -208 0
-107 -116 210 0
-107 -208 210 0
-116 -208 210 0
107 116 -210 0
107 208 -210 0
116 208 -210 0
-108 -117 212 0
-108 -210 212 0
-117 -210 212 0
108 117 -212 0
108 210 -212 0
117 210 -212 0
-109 -118 214 0
-109 -212 214 0
-118 -212 214 0
109 118 -214 0
109 212 -214 0
118 212 -214 0
-110 -119 216 0
-110 -214 216 0
-119 -214 216 0
110 119 -216 0
110 214 -216 0
119 214 -216 0
-111 -120 218 0
-111 -216 218 0
-120 -216 218 0
111 120 -218 0
111 216 -218 0
120 216 -218 0
-112 -121 220 0
-112 -218 220 0
-121 -218 220 0
112 121 -220 0
112 218 -220 0
121 218 -220 0
-221 122 220 0
-221 -122 -220 0
221 122 -220 0
221 -122 220 0
-122 -220 222 0
122 220 -222 0
122 -222 0
220 -222 0
-223 125 43 0
-223 -125 -43 0
223 125 -43 0
223 -125 43 0
-125 -43 224 0
125 43 -224 0
125 -224 0
43 -224 0
-127 -143 226 0
-127 -224 226 0
-143 -224 226 0
127 143 -226 0
127 224 -226 0
143 224 -226 0
-129 -145 228 0
-129 -226 228 0
-145 -226 228 0
129 145 -228 0
129 226 -228 0
145 226 -228 0
-131 -147 230 0
-131 -228 230 0
-147 -228 230 0
131 147 -230 0
131 228 -230 0
147 228 -230 0
-133 -149 232 0
-133 -230 232 0
-149 -230 232 0
133 149 -232 0
133 230 -232 0
149 230 -232 0
-135 -151 234 0
-135 -232 234 0
-151 -232 234 0
135 151 -234 0
135 232 -234 0
151 232 -234 0
-137 -153 236 0
-137 -234 236 0
-153 -234 236 0
137 153 -236 0
137 234 -236 0
153 234 -236 0
-139 -155 238 0
-139 -236 238 0
-155 -236 238 0
139 155 -238 0
139 236 -238 0
155 236 -238 0
-141 -157 240 0
-141 -238 240 0
-157 -238 240 0
141 157 -240 0
141 238 -240 0
157 238 -240 0
-142 -159 242 0
-142 -240 242 0
-159 -240 242 0
142 159 -242 0
142 240 -242 0
159 240 -242 0
-243 161 242 0
-243 -161 -242 0
243 161 -242 0
243 -161 242 0
-161 -242 244 0
161 242 -244 0
161 -244 0
242 -244 0
-245 162 244 0
-245 -162 -244 0
245 162 -244 0
245 -162 244 0
-162 -244 246 0
162 244 -246 0
162 -246 0
244 -246 0
-247 165 83 0
-247 -165 -83 0
247 165 -83 0
247 -165 83 0
-165 -83 248 0
165 83 -248 0
165 -248 0
83 -248 0
-167 -183 250 0
-167 -248 250 0
-183 -248 250 0
167 183 -250 0
167 248 -250 0
183 248 -250 0
-169 -185 252 0
-169 -250 252 0
-185 -250 252 0
169 185 -252 0
169 250 -252 0
185 250 -252 0
-171 -187 254 0
-171 -252 254 0
-187 -252 254 0
171 187 -254 0
171 252 -254 0
187 252 -254 0
-173 -189 256 0
-173 -254 256 0
-189 -254 256 0
173 189 -256 0
173 254 -256 0
189 254 -256 0
-175 -191 258 0
-175 -256 258 0
-191 -256 258 0
175 191 -258 0
175 256 -258 0
191 256 -258 0
-177 -193 260 0
-177 -258 260 0
-193 -258 260 0
177 193 -260 0
177 258 -260 0
193 258 -260 0
-179 -195 262 0
-179 -260 262 0
-195 -260 262 0
179 195 -262 0
179 260 -262 0
195 260 -262 0
-181 -197 264 0
-181 -262 264 0
-197 -262 264 0
181 197 -264 0
181 262 -264 0
197 262 -264 0
-182 -199 266 0
-182 -264 266 0
-199 -264 266 0
182 199 -266 0
182 264 -266 0
199 264 -266 0
-267 201 266 0
-267 -201 -266 0
267 201 -266 0
267 -201 266 0
-201 -266 268 0
201 266 -268 0
201 -268 0
266 -268 0
-269 202 268 0
-269 -202 -268 0
269 202 -268 0
269 -202 268 0
-202 -268 270 0
202 268 -270 0
202 -270 0
268 -270 0
-271 235 103 0
-271 -235 -103 0
271 235 -103 0
271 -235 103 0
-235 -103 272 0
235 103 -272 0
235 -272 0
103 -272 0
-237 -203 274 0
-237 -272 274 0
-203 -272 274 0
237 203 -274 0
237 272 -274 0
203 272 -274 0
-239 -205 276 0
-239 -274 276 0
-205 -274 276 0
239 205 -276 0
239 274 -276 0
205 274 -276 0
-241 -207 278 0
-241 -276 278 0
-207 -276 278 0
241 207 -278 0
241 276 -278 0
207 276 -278 0
-243 -209 280 0
-243 -278 280 0
-209 -278 280 0
243 209 -280 0
243 278 -280 0
209 278 -280 0
-245 -211 282 0
-245 -280 282 0
-211 -280 282 0
245 211 -282 0
245 280 -282 0
211 280 -282 0
-246 -213 284 0
-246 -282 284 0
-213 -282 284 0
246 213 -284 0
246 282 -284 0
213 282 -284 0
-285 215 284 0
-285 -215 -284 0
285 215 -284 0
285 -215 284 0
-215 -284 286 0
215 284 -286 0
215 -286 0
284 -286 0
-287 217 286 0
-287 -217 -286 0
287 217 -286 0
287 -217 286 0
-217 -286 288 0
217 286 -288 0
217 -288 0
286 -288 0
-289 219 288 0
-289 -219 -288 0
289 219 -288 0
289 -219 288 0
-219 -288 290 0
219 288 -290 0
219 -290 0
288 -290 0
-291 221 290 0
-291 -221 -290 0
291 221 -290 0
291 -221 290 0
-221 -290 292 0
221 290 -292 0
221 -292 0
290 -292 0
-293 222 292 0
-293 -222 -292 0
293 222 -292 0
293 -222 292 0
-222 -292 294 0
222 292 -294 0
222 -294 0
292 -294 0
-295 227 63 0
-295 -227 -63 0
295 227 -63 0
295 -227 63 0
-227 -63 296 0
227 63 -296 0
227 -296 0
63 -296 0
-229 -163 298 0
-229 -296 298 0
-163 -296 298 0
229 163 -298 0
229 296 -298 0
163 296 -298 0
-231 -247 300 0
-231 -298 300 0
-247 -298 300 0
231 247 -300 0
231 298 -300 0
247 298 -300 0
-233 -249 302 0
-233 -300 302 0
-249 -300 302 0
233 249 -302 0
233 300 -302 0
249 300 -302 0
-271 -251 304 0
-271 -302 304 0
-251 -302 304 0
271 251 -304 0
271 302 -304 0
251 302 -304 0
-273 -253 306 0
-273 -304 306 0
-253 -304 306 0
273 253 -306 0
273 304 -306 0
253 304 -306 0
-275 -255 308 0
-275 -306 308 0
-255 -306 308 0
275 255 -308 0
275 306 -308 0
255 306 -308 0
-277 -257 310 0
-277 -308 310 0
-257 -308 310 0
277 257 -310 0
277 308 -310 0
257 308 -310 0
-279 -259 312 0
-279 -310 312 0
-259 -310 312 0
279 259 -312 0
279 310 -312 0
259 310 -312 0
-281 -261 314 0
-281 -312 314 0
-261 -312 314 0
281 261 -314 0
281 312 -314 0
261 312 -314 0
-283 -263 316 0
-283 -314 316 0
-263 -314 316 0
283 263 -316 0
283 314 -316 0
263 314 -316 0
-285 -265 318 0
-285 -316 318 0
-265 -316 318 0
285 265 -318 0
285 316 -318 0
265 316 -318 0
-287 -267 320 0
-287 -318 320 0
-267 -318 320 0
287 267 -320 0
287 318 -320 0
267 318 -320 0
-289 -269 322 0
-289 -320 322 0
-269 -320 322 0
289 269 -322 0
289 320 -322 0
269 320 -322 0
-291 -270 324 0
-291 -322 324 0
-270 -322 324 0
291 270 -324 0
291 322 -324 0
270 322 -324 0
-325 293 324 0
-325 -293 -324 0
325 293 -324 0
325 -293 324 0
-293 -324 326 0
293 324 -326 0
293 -326 0
324 -326 0
-327 294 326 0
-327 -294 -326 0
327 294 -326 0
327 -294 326 0
-294 -326 328 0
294 326 -328 0
294 -328 0
326 -328 0
23 -1 -11 0
-23 1 0
-23 11 0
24 -2 -11 0
-24 2 0
-24 11 0
25 -3 -11 0
-25 3 0
-25 11 0
26 -4 -11 0
-26 4 0
-26 11 0
27 -5 -11 0
-27 5 0
-27 11 0
28 -6 -11 0
-28 6 0
-28 11 0
29 -7 -11 0
-29 7 0
-29 11 0
30 -8 -11 0
-30 8 0
-30 11 0
31 -9 -11 0
-31 9 0
-31 11 0
32 -10 -11 0
-32 10 0
-32 11 0
33 -1 -12 0
-33 1 0
-33 12 0
34 -2 -12 0
-34 2 0
-34 12 0
35 -3 -12 0
-35 3 0
-35 12 0
36 -4 -12 0
-36 4 0
-36 12 0
37 -5 -12 0
-37 5 0
-37 12 0
38 -6 -12 0
-38 6 0
-38 12 0
39 -7 -12 0
-39 7 0
-39 12 0
40 -8 -12 0
-40 8 0
-40 12 0
41 -9 -12 0
-41 9 0
-41 12 0
42 -10 -12 0
-42 10 0
-42 12 0
43 -1 -13 0
-43 1 0
-43 13 0
44 -2 -13 0
-44 2 0
-44 13 0
45 -3 -13 0
-45 3 0
-45 13 0
46 -4 -13 0
-46 4 0
-46 13 0
47 -5 -13 0
-47 5 0
-47 13 0
48 -6 -13 0
-48 6 0
-48 13 0
49 -7 -13 0
-49 7 0
-49 13 0
50 -8 -13 0
-50 8 0
-50 13 0
51 -9 -13 0
-51 9 0
-51 13 0
52 -10 -13 0
-52 10 0
-52 13 0
53 -1 -14 0
-53 1 0
-53 14 0
54 -2 -14 0
-54 2 0
-54 14 0
55 -3 -14 0
-55 3 0
-55 14 0
56 -4 -14 0
-56 4 0
-56 14 0
57 -5 -14 0
-57 5 0
-57 14 0
58 -6 -14 0
-58 6 0
-58 14 0
59 -7 -14 0
-59 7 0
-59 14 0
60 -8 -14 0
-60 8 0
-60 14 0
61 -9 -14 0
-61 9 0
-61 14 0
62 -10 -14 0
-62 10 0
-62 14 0
63 -1 -15 0
-63 1 0
-63 15 0
64 -2 -15 0
-64 2 0
-64 15 0
65 -3 -15 0
-65 3 0
-65 15 0
66 -4 -15 0
-66 4 0
-66 15 0
67 -5 -15 0
-67 5 0
-67 15 0
68 -6 -15 0
-68 6 0
-68 15 0
69 -7 -15 0
-69 7 0
-69 15 0
70 -8 -15 0
-70 8 0
-70 15 0
71 -9 -15 0
-71 9 0
-71 15 0
72 -10 -15 0
-72 10 0
-72 15 0
73 -1 -16 0
-73 1 0
-73 16 0
74 -2 -16 0
-74 2 0
-74 16 0
75 -3 -16 0
-75 3 0
-75 16 0
76 -4 -16 0
-76 4 0
-76 16 0
77 -5 -16 0
-77 5 0
-77 16 0
78 -6 -16 0
-78 6 0
-78 16 0
79 -7 -16 0
-79 7 0
-79 16 0
80 -8 -16 0
-80 8 0
-80 16 0
81 -9 -16 0
-81 9 0
-81 16 0
82 -10 -16 0
-82 10 0
-82 16 0
83 -1 -17 0
-83 1 0
-83 17 0
84 -2 -17 0
-84 2 0
-84 17 0
85 -3 -17 0
-85 3 0
-85 17 0
86 -4 -17 0
-86 4 0
-86 17 0
87 -5 -17 0
-87 5 0
-87 17 0
88 -6 -17 0
-88 6 0
-88 17 0
89 -7 -17 0
-89 7 0
-89 17 0
90 -8 -17 0
-90 8 0
-90 17 0
91 -9 -17 0
-91 9 0
-91 17 0
92 -10 -17 0
-92 10 0
-92 17 0
93 -1 -18 0
-93 1 0
-93 18 0
94 -2 -18 0
-94 2 0
-94 18 0
95 -3 -18 0
-95 3 0
-95 18 0
96 -4 -18 0
-96 4 0
-96 18 0
97 -5 -18 0
-97 5 0
-97 18 0
98 -6 -18 0
-98 6 0
-98 18 0
99 -7 -18 0
-99 7 0
-99 18 0
100 -8 -18 0
-100 8 0
-100 18 0
101 -9 -18 0
-101 9 0
-101 18 0
102 -10 -18 0
-102 10 0
-102 18 0
103 -1 -19 0
-103 1 0
-103 19 0
104 -2 -19 0
-104 2 0
-104 19 0
105 -3 -19 0
-105 3 0
-105 19 0
106 -4 -19 0
-106 4 0
-106 19 0
107 -5 -19 0
-107 5 0
-107 19 0
108 -6 -19 0
-108 6 0
-108 19 0
109 -7 -19 0
-109 7 0
-109 19 0
110 -8 -19 0
-110 8 0
-110 19 0
111 -9 -19 0
-111 9 0
-111 19 0
112 -10 -19 0
-112 10 0
-112 19 0
113 -1 -20 0
-113 1 0
-113 20 0
114 -2 -20 0
-114 2 0
-114 20 0
115 -3 -20 0
-115 3 0
-115 20 0
116 -4 -20 0
-116 4 0
-116 20 0
117 -5 -20 0
-117 5 0
-117 20 0
118 -6 -20 0
-118 6 0
-118 20 0
119 -7 -20 0
-119 7 0
-119 20 0
120 -8 -20 0
-120 8 0
-120 20 0
121 -9 -20 0
-121 9 0
-121 20 0
122 -10 -20 0
-122 10 0
-122 20 0
23 -22 0
-23 22 0
123 -22 0
-123 22 0
223 -22 0
-223 22 0
225 -22 0
-225 22 0
295 -22 0
-295 22 0
297 -22 0
-297 22 0
299 -22 0
-299 22 0
301 -22 0
-301 22 0
303 -22 0
-303 22 0
305 -22 0
-305 22 0
307 -21 0
-307 21 0
309 -21 0
-309 21 0
311 -21 0
-311 21 0
313 -21 0
-313 21 0
315 -21 0
-315 21 0
317 -21 0
-317 21 0
319 -21 0
-319 21 0
321 -21 0
-321 21 0
323 -21 0
-323 21 0
325 -21 0
-325 21 0
327 -21 0
-327 21 0
328 -21 0
-328 21 0
332 333 334 0
330 331 -334 0
10 329 -333 0
8 9 -332 0
6 7 -331 0
4 5 -330 0
2 3 -329 0
338 339 340 0
336 337 -340 0
20 335 -339 0
18 19 -338 0
16 17 -337 0
14 15 -336 0
12 13 -335 0
34 124 341 0
-125 25 -341 0
-34 124 342 0
-125 -25 -342 0
34 -124 343 0
-125 -25 -343 0
-34 -124 344 0
-125 25 -344 0
-34 -124 345 0
125 -25 -345 0
34 -124 346 0
125 25 -346 0
-34 124 347 0
125 25 -347 0
34 124 348 0
125 -25 -348 0
35 126 349 0
-127 26 -349 0
-35 126 350 0
-127 -26 -350 0
35 -126 351 0
-127 -26 -351 0
-35 -126 352 0
-127 26 -352 0
-35 -126 353 0
127 -26 -353 0
35 -126 354 0
127 26 -354 0
-35 126 355 0
127 26 -355 0
35 126 356 0
127 -26 -356 0
36 128 357 0
-129 27 -357 0
-36 128 358 0
-129 -27 -358 0
36 -128 359 0
-129 -27 -359 0
-36 -128 360 0
-129 27 -360 0
-36 -128 361 0
129 -27 -361 0
36 -128 362 0
129 27 -362 0
-36 128 363 0
129 27 -363 0
36 128 364 0
129 -27 -364 0
37 130 365 0
-131 28 -365 0
-37 130 366 0
-131 -28 -366 0
37 -130 367 0
-131 -28 -367 0
-37 -130 368 0
-131 28 -368 0
-37 -130 369 0
131 -28 -369 0
37 -130 370 0
131 28 -370 0
-37 130 371 0
131 28 -371 0
37 130 372 0
131 -28 -372 0
38 132 373 0
-133 29 -373 0
-38 132 374 0
-133 -29 -374 0
38 -132 375 0
-133 -29 -375 0
-38 -132 376 0
-133 29 -376 0
-38 -132 377 0
133 -29 -377 0
38 -132 378 0
133 29 -378 0
-38 132 379 0
133 29 -379 0
38 132 380 0
133 -29 -380 0
39 134 381 0
-135 30 -381 0
-39 134 382 0
-135 -30 -382 0
39 -134 383 0
-135 -30 -383 0
-39 -134 384 0
-135 30 -384 0
-39 -134 385 0
135 -30 -385 0
39 -134 386 0
135 30 -386 0
-39 134 387 0
135 30 -387 0
39 134 388 0
135 -30 -388 0
40 136 389 0
-137 31 -389 0
-40 136 390 0
-137 -31 -390 0
40 -136 391 0
-137 -31 -391 0
-40 -136 392 0
-137 31 -392 0
-40 -136 393 0
137 -31 -393 0
40 -136 394 0
137 31 -394 0
-40 136 395 0
137 31 -395 0
40 136 396 0
137 -31 -396 0
41 138 397 0
-139 32 -397 0
-41 138 398 0
-139 -32 -398 0
41 -138 399 0
-139 -32 -399 0
-41 -138 400 0
-139 32 -400 0
-41 -138 401 0
139 -32 -401 0
41 -138 402 0
139 32 -402 0
-41 138 403 0
139 32 -403 0
41 138 404 0
139 -32 -404 0
54 144 405 0
-145 45 -405 0
-54 144 406 0
-145 -45 -406 0
54 -144 407 0
-145 -45 -407 0
-54 -144 408 0
-145 45 -408 0
-54 -144 409 0
145 -45 -409 0
54 -144 410 0
145 45 -410 0
-54 144 411 0
145 45 -411 0
54 144 412 0
145 -45 -412 0
55 146 413 0
-147 46 -413 0
-55 146 414 0
-147 -46 -414 0
55 -146 415 0
-147 -46 -415 0
-55 -146 416 0
-147 46 -416 0
-55 -146 417 0
147 -46 -417 0
55 -146 418 0
147 46 -418 0
-55 146 419 0
147 46 -419 0
55 146 420 0
147 -46 -420 0
56 148 421 0
-149 47 -421 0
-56 148 422 0
-149 -47 -422 0
56 -148 423 0
-149 -47 -423 0
-56 -148 424 0
-149 47 -424 0
-56 -148 425 0
149 -47 -425 0
56 -148 426 0
149 47 -426 0
-56 148 427 0
149 47 -427 0
56 148 428 0
149 -47 -428 0
57 150 429 0
-151 48 -429 0
-57 150 430 0
-151 -48 -430 0
57 -150 431 0
-151 -48 -431 0
-57 -150 432 0
-151 48 -432 0
-57 -150 433 0
151 -48 -433 0
57 -150 434 0
151 48 -434 0
-57 150 435 0
151 48 -435 0
57 150 436 0
151 -48 -436 0
58 152 437 0
-153 49 -437 0
-58 152 438 0
-153 -49 -438 0
58 -152 439 0
-153 -49 -439 0
-58 -152 440 0
-153 49 -440 0
-58 -152 441 0
153 -49 -441 0
58 -152 442 0
153 49 -442 0
-58 152 443 0
153 49 -443 0
58 152 444 0
153 -49 -444 0
59 154 445 0
-155 50 -445 0
-59 154 446 0
-155 -50 -446 0
59 -154 447 0
-155 -50 -447 0
-59 -154 448 0
-155 50 -448 0
-59 -154 449 0
155 -50 -449 0
59 -154 450 0
155 50 -450 0
-59 154 451 0
155 50 -451 0
59 154 452 0
155 -50 -452 0
60 156 453 0
-157 51 -453 0
-60 156 454 0
-157 -51 -454 0
60 -156 455 0
-157 -51 -455 0
-60 -156 456 0
-157 51 -456 0
-60 -156 457 0
157 -51 -457 0
60 -156 458 0
157 51 -458 0
-60 156 459 0
157 51 -459 0
60 156 460 0
157 -51 -460 0
61 158 461 0
-159 52 -461 0
-61 158 462 0
-159 -52 -462 0
61 -158 463 0
-159 -52 -463 0
-61 -158 464 0
-159 52 -464 0
-61 -158 465 0
159 -52 -465 0
61 -158 466 0
159 52 -466 0
-61 158 467 0
159 52 -467 0
61 158 468 0
159 -52 -468 0
74 164 469 0
-165 65 -469 0
-74 164 470 0
-165 -65 -470 0
74 -164 471 0
-165 -65 -471 0
-74 -164 472 0
-165 65 -472 0
-74 -164 473 0
165 -65 -473 0
74 -164 474 0
165 65 -474 0
-74 164 475 0
165 65 -475 0
74 164 476 0
165 -65 -476 0
75 166 477 0
-167 66 -477 0
-75 166 478 0
-167 -66 -478 0
75 -166 479 0
-167 -66 -479 0
-75 -166 480 0
-167 66 -480 0
-75 -166 481 0
167 -66 -481 0
75 -166 482 0
167 66 -482 0
-75 166 483 0
167 66 -483 0
75 166 484 0
167 -66 -484 0
76 168 485 0
-169 67 -485 0
-76 168 486 0
-169 -67 -486 0
76 -168 487 0
-169 -67 -487 0
-76 -168 488 0
-169 67 -488 0
-76 -168 489 0
169 -67 -489 0
76 -168 490 0
169 67 -490 0
-76 168 491 0
169 67 -491 0
76 168 492 0
169 -67 -492 0
77 170 493 0
-171 68 -493 0
-77 170 494 0
-171 -68 -494 0
77 -170 495 0
-171 -68 -495 0
-77 -170 496 0
-171 68 -496 0
-77 -170 497 0
171 -68 -497 0
77 -170 498 0
171 68 -498 0
-77 170 499 0
171 68 -499 0
77 170 500 0
171 -68 -500 0
78 172 501 0
-173 69 -501 0
-78 172 502 0
-173 -69 -502 0
78 -172 503 0
-173 -69 -503 0
-78 -172 504 0
-173 69 -504 0
-78 -172 505 0
173 -69 -505 0
78 -172 506 0
173 69 -506 0
-78 172 507 0
173 69 -507 0
78 172 508 0
173 -69 -508 0
79 174 509 0
-175 70 -509 0
-79 174 510 0
-175 -70 -510 0
79 -174 511 0
-175 -70 -511 0
-79 -174 512 0
-175 70 -512 0
-79 -174 513 0
175 -70 -513 0
79 -174 514 0
175 70 -514 0
-79 174 515 0
175 70 -515 0
79 174 516 0
175 -70 -516 0
80 176 517 0
-177 71 -517 0
-80 176 518 0
-177 -71 -518 0
80 -176 519 0
-177 -71 -519 0
-80 -176 520 0
-177 71 -520 0
-80 -176 521 0
177 -71 -521 0
80 -176 522 0
177 71 -522 0
-80 176 523 0
177 71 -523 0
80 176 524 0
177 -71 -524 0
81 178 525 0
-179 72 -525 0
-81 178 526 0
-179 -72 -526 0
81 -178 527 0
-179 -72 -527 0
-81 -178 528 0
-179 72 -528 0
-81 -178 529 0
179 -72 -529 0
81 -178 530 0
179 72 -530 0
-81 178 531 0
179 72 -531 0
81 178 532 0
179 -72 -532 0
94 184 533 0
-185 85 -533 0
-94 184 534 0
-185 -85 -534 0
94 -184 535 0
-185 -85 -535 0
-94 -184 536 0
-185 85 -536 0
-94 -184 537 0
185 -85 -537 0
94 -184 538 0
185 85 -538 0
-94 184 539 0
185 85 -539 0
94 184 540 0
185 -85 -540 0
95 186 541 0
-187 86 -541 0
-95 186 542 0
-187 -86 -542 0
95 -186 543 0
-187 -86 -543 0
-95 -186 544 0
-187 86 -544 0
-95 -186 545 0
187 -86 -545 0
95 -186 546 0
187 86 -546 0
-95 186 547 0
187 86 -547 0
95 186 548 0
187 -86 -548 0
96 188 549 0
-189 87 -549 0
-96 188 550 0
-189 -87 -550 0
96 -188 551 0
-189 -87 -551 0
-96 -188 552 0
-189 87 -552 0
-96 -188 553 0
189 -87 -553 0
96 -188 554 0
189 87 -554 0
-96 188 555 0
189 87 -555 0
96 188 556 0
189 -87 -556 0
97 190 557 0
-191 88 -557 0
-97 190 558 0
-191 -88 -558 0
97 -190 559 0
-191 -88 -559 0
-97 -190 560 0
-191 88 -560 0
-97 -190 561 0
191 -88 -561 0
97 -190 562 0
191 88 -562 0
-97 190 563 0
191 88 -563 0
97 190 564 0
191 -88 -564 0
98 192 565 0
-193 89 -565 0
-98 192 566 0
-193 -89 -566 0
98 -192 567 0
-193 -89 -567 0
-98 -192 568 0
-193 89 -568 0
-98 -192 569 0
193 -89 -569 0
98 -192 570 0
193 89 -570 0
-98 192 571 0
193 89 -571 0
98 192 572 0
193 -89 -572 0
99 194 573 0
-195 90 -573 0
-99 194 574 0
-195 -90 -574 0
99 -194 575 0
-195 -90 -575 0
-99 -194 576 0
-195 90 -576 0
-99 -194 577 0
195 -90 -577 0
99 -194 578 0
195 90 -578 0
-99 194 579 0
195 90 -579 0
99 194 580 0
195 -90 -580 0
100 196 581 0
-197 91 -581 0
-100 196 582 0
-197 -91 -582 0
100 -196 583 0
-197 -91 -583 0
-100 -196 584 0
-197 91 -584 0
-100 -196 585 0
197 -91 -585 0
100 -196 586 0
197 91 -586 0
-100 196 587 0
197 91 -587 0
100 196 588 0
197 -91 -588 0
101 198 589 0
-199 92 -589 0
-101 198 590 0
-199 -92 -590 0
101 -198 591 0
-199 -92 -591 0
-101 -198 592 0
-199 92 -592 0
-101 -198 593 0
199 -92 -593 0
101 -198 594 0
199 92 -594 0
-101 198 595 0
199 92 -595 0
101 198 596 0
199 -92 -596 0
114 204 597 0
-205 105 -597 0
-114 204 598 0
-205 -105 -598 0
114 -204 599 0
-205 -105 -599 0
-114 -204 600 0
-205 105 -600 0
-114 -204 601 0
205 -105 -601 0
114 -204 602 0
205 105 -602 0
-114 204 603 0
205 105 -603 0
114 204 604 0
205 -105 -604 0
115 206 605 0
-207 106 -605 0
-115 206 606 0
-207 -106 -606 0
115 -206 607 0
-207 -106 -607 0
-115 -206 608 0
-207 106 -608 0
-115 -206 609 0
207 -106 -609 0
115 -206 610 0
207 106 -610 0
-115 206 611 0
207 106 -611 0
115 206 612 0
207 -106 -612 0
116 208 613 0
-209 107 -613 0
-116 208 614 0
-209 -107 -614 0
116 -208 615 0
-209 -107 -615 0
-116 -208 616 0
-209 107 -616 0
-116 -208 617 0
209 -107 -617 0
116 -208 618 0
209 107 -618 0
-116 208 619 0
209 107 -619 0
116 208 620 0
209 -107 -620 0
117 210 621 0
-211 108 -621 0
-117 210 622 0
-211 -108 -622 0
117 -210 623 0
-211 -108 -623 0
-117 -210 624 0
-211 108 -624 0
-117 -210 625 0
211 -108 -625 0
117 -210 626 0
211 108 -626 0
-117 210 627 0
211 108 -627 0
117 210 628 0
211 -108 -628 0
118 212 629 0
-213 109 -629 0
-118 212 630 0
-213 -109 -630 0
118 -212 631 0
-213 -109 -631 0
-118 -212 632 0
-213 109 -632 0
-118 -212 633 0
213 -109 -633 0
118 -212 634 0
213 109 -634 0
-118 212 635 0
213 109 -635 0
118 212 636 0
213 -109 -636 0
119 214 637 0
-215 110 -637 0
-119 214 638 0
-215 -110 -638 0
119 -214 639 0
-215 -110 -639 0
-119 -214 640 0
-215 110 -640 0
-119 -214 641 0
215 -110 -641 0
119 -214 642 0
215 110 -642 0
-119 214 643 0
215 110 -643 0
119 214 644 0
215 -110 -644 0
120 216 645 0
-217 111 -645 0
-120 216 646 0
-217 -111 -646 0
120 -216 647 0
-217 -111 -647 0
-120 -216 648 0
-217 111 -648 0
-120 -216 649 0
217 -111 -649 0
120 -216 650 0
217 111 -650 0
-120 216 651 0
217 111 -651 0
120 216 652 0
217 -111 -652 0
121 218 653 0
-219 112 -653 0
-121 218 654 0
-219 -112 -654 0
121 -218 655 0
-219 -112 -655 0
-121 -218 656 0
-219 112 -656 0
-121 -218 657 0
219 -112 -657 0
121 -218 658 0
219 112 -658 0
-121 218 659 0
219 112 -659 0
121 218 660 0
219 -112 -660 0
143 224 661 0
-225 127 -661 0
-143 224 662 0
-225 -127 -662 0
143 -224 663 0
-225 -127 -663 0
-143 -224 664 0
-225 127 -664 0
-143 -224 665 0
225 -127 -665 0
143 -224 666 0
225 127 -666 0
-143 224 667 0
225 127 -667 0
143 224 668 0
225 -127 -668 0
145 226 669 0
-227 129 -669 0
-145 226 670 0
-227 -129 -670 0
145 -226 671 0
-227 -129 -671 0
-145 -226 672 0
-227 129 -672 0
-145 -226 673 0
227 -129 -673 0
145 -226 674 0
227 129 -674 0
-145 226 675 0
227 129 -675 0
145 226 676 0
227 -129 -676 0
147 228 677 0
-229 131 -677 0
-147 228 678 0
-229 -131 -678 0
147 -228 679 0
-229 -131 -679 0
-147 -228 680 0
-229 131 -680 0
-147 -228 681 0
229 -131 -681 0
147 -228 682 0
229 131 -682 0
-147 228 683 0
229 131 -683 0
147 228 684 0
229 -131 -684 0
149 230 685 0
-231 133 -685 0
-149 230 686 0
-231 -133 -686 0
149 -230 687 0
-231 -133 -687 0
-149 -230 688 0
-231 133 -688 0
-149 -230 689 0
231 -133 -689 0
149 -230 690 0
231 133 -690 0
-149 230 691 0
231 133 -691 0
149 230 692 0
231 -133 -692 0
151 232 693 0
-233 135 -693 0
-151 232 694 0
-233 -135 -694 0
151 -232 695 0
-233 -135 -695 0
-151 -232 696 0
-233 135 -696 0
-151 -232 697 0
233 -135 -697 0
151 -232 698 0
233 135 -698 0
-151 232 699 0
233 135 -699 0
151 232 700 0
233 -135 -700 0
153 234 701 0
-235 137 -701 0
-153 234 702 0
-235 -137 -702 0
153 -234 703 0
-235 -137 -703 0
-153 -234 704 0
-235 137 -704 0
-153 -234 705 0
235 -137 -705 0
153 -234 706 0
235 137 -706 0
-153 234 707 0
235 137 -707 0
153 234 708 0
235 -137 -708 0
155 236 709 0
-237 139 -709 0
-155 236 710 0
-237 -139 -710 0
155 -236 711 0
-237 -139 -711 0
-155 -236 712 0
-237 139 -712 0
-155 -236 713 0
237 -139 -713 0
155 -236 714 0
237 139 -714 0
-155 236 715 0
237 139 -715 0
155 236 716 0
237 -139 -716 0
157 238 717 0
-239 141 -717 0
-157 238 718 0
-239 -141 -718 0
157 -238 719 0
-239 -141 -719 0
-157 -238 720 0
-239 141 -720 0
-157 -238 721 0
239 -141 -721 0
157 -238 722 0
239 141 -722 0
-157 238 723 0
239 141 -723 0
157 238 724 0
239 -141 -724 0
159 240 725 0
-241 142 -725 0
-159 240 726 0
-241 -142 -726 0
159 -240 727 0
-241 -142 -727 0
-159 -240 728 0
-241 142 -728 0
-159 -240 729 0
241 -142 -729 0
159 -240 730 0
241 142 -730 0
-159 240 731 0
241 142 -731 0
159 240 732 0
241 -142 -732 0
183 248 733 0
-249 167 -733 0
-183 248 734 0
-249 -167 -734 0
183 -248 735 0
-249 -167 -735 0
-183 -248 736 0
-249 167 -736 0
-183 -248 737 0
249 -167 -737 0
183 -248 738 0
249 167 -738 0
-183 248 739 0
249 167 -739 0
183 248 740 0
249 -167 -740 0
185 250 741 0
-251 169 -741 0
-185 250 742 0
-251 -169 -742 0
185 -250 743 0
-251 -169 -743 0
-185 -250 744 0
-251 169 -744 0
-185 -250 745 0
251 -169 -745 0
185 -250 746 0
251 169 -746 0
-185 250 747 0
251 169 -747 0
185 250 748 0
251 -169 -748 0
187 252 749 0
-253 171 -749 0
-187 252 750 0
-253 -171 -750 0
187 -252 751 0
-253 -171 -751 0
-187 -252 752 0
-253 171 -752 0
-187 -252 753 0
253 -171 -753 0
187 -252 754 0
253 171 -754 0
-187 252 755 0
253 171 -755 0
187 252 756 0
253 -171 -756 0
189 254 757 0
-255 173 -757 0
-189 254 758 0
-255 -173 -758 0
189 -254 759 0
-255 -173 -759 0
-189 -254 760 0
-255 173 -760 0
-189 -254 761 0
255 -173 -761 0
189 -254 762 0
255 173 -762 0
-189 254 763 0
255 173 -763 0
189 254 764 0
255 -173 -764 0
191 256 765 0
-257 175 -765 0
-191 256 766 0
-257 -175 -766 0
191 -256 767 0
-257 -175 -767 0
-191 -256 768 0
-257 175 -768 0
-191 -256 769 0
257 -175 -769 0
191 -256 770 0
257 175 -770 0
-191 256 771 0
257 175 -771 0
191 256 772 0
257 -175 -772 0
193 258 773 0
-259 177 -773 0
-193 258 774 0
-259 -177 -774 0
193 -258 775 0
-259 -177 -775 0
-193 -258 776 0
-259 177 -776 0
-193 -258 777 0
259 -177 -777 0
193 -258 778 0
259 177 -778 0
-193 258 779 0
259 177 -779 0
193 258 780 0
259 -177 -780 0
195 260 781 0
-261 179 -781 0
-195 260 782 0
-261 -179 -782 0
195 -260 783 0
-261 -179 -783 0
-195 -260 784 0
-261 179 -784 0
-195 -260 785 0
261 -179 -785 0
195 -260 786 0
261 179 -786 0
-195 260 787 0
261 179 -787 0
195 260 788 0
261 -179 -788 0
197 262 789 0
-263 181 -789 0
-197 262 790 0
-263 -181 -790 0
197 -262 791 0
-263 -181 -791 0
-197 -262 792 0
-263 181 -792 0
-197 -262 793 0
263 -181 -793 0
197 -262 794 0
263 181 -794 0
-197 262 795 0
263 181 -795 0
197 262 796 0
263 -181 -796 0
199 264 797 0
-265 182 -797 0
-199 264 798 0
-265 -182 -798 0
199 -264 799 0
-265 -182 -799 0
-199 -264 800 0
-265 182 -800 0
-199 -264 801 0
265 -182 -801 0
199 -264 802 0
265 182 -802 0
-199 264 803 0
265 182 -803 0
199 264 804 0
265 -182 -804 0
203 272 805 0
-273 237 -805 0
-203 272 806 0
-273 -237 -806 0
203 -272 807 0
-273 -237 -807 0
-203 -272 808 0
-273 237 -808 0
-203 -272 809 0
273 -237 -809 0
203 -272 810 0
273 237 -810 0
-203 272 811 0
273 237 -811 0
203 272 812 0
273 -237 -812 0
205 274 813 0
-275 239 -813 0
-205 274 814 0
-275 -239 -814 0
205 -274 815 0
-275 -239 -815 0
-205 -274 816 0
-275 239 -816 0
-205 -274 817 0
275 -239 -817 0
205 -274 818 0
275 239 -818 0
-205 274 819 0
275 239 -819 0
205 274 820 0
275 -239 -820 0
207 276 821 0
-277 241 -821 0
-207 276 822 0
-277 -241 -822 0
207 -276 823 0
-277 -241 -823 0
-207 -276 824 0
-277 241 -824 0
-207 -276 825 0
277 -241 -825 0
207 -276 826 0
277 241 -826 0
-207 276 827 0
277 241 -827 0
207 276 828 0
277 -241 -828 0
209 278 829 0
-279 243 -829 0
-209 278 830 0
-279 -243 -830 0
209 -278 831 0
-279 -243 -831 0
-209 -278 832 0
-279 243 -832 0
-209 -278 833 0
279 -243 -833 0
209 -278 834 0
279 243 -834 0
-209 278 835 0
279 243 -835 0
209 278 836 0
279 -243 -836 0
211 280 837 0
-281 245 -837 0
-211 280 838 0
-281 -245 -838 0
211 -280 839 0
-281 -245 -839 0
-211 -280 840 0
-281 245 -840 0
-211 -280 841 0
281 -245 -841 0
211 -280 842 0
281 245 -842 0
-211 280 843 0
281 245 -843 0
211 280 844 0
281 -245 -844 0
213 282 845 0
-283 246 -845 0
-213 282 846 0
-283 -246 -846 0
213 -282 847 0
-283 -246 -847 0
-213 -282 848 0
-283 246 -848 0
-213 -282 849 0
283 -246 -849 0
213 -282 850 0
283 246 -850 0
-213 282 851 0
283 246 -851 0
213 282 852 0
283 -246 -852 0
163 296 853 0
-297 229 -853 0
-163 296 854 0
-297 -229 -854 0
163 -296 855 0
-297 -229 -855 0
-163 -296 856 0
-297 229 -856 0
-163 -296 857 0
297 -229 -857 0
163 -296 858 0
297 229 -858 0
-163 296 859 0
297 229 -859 0
163 296 860 0
297 -229 -860 0
247 298 861 0
-299 231 -861 0
-247 298 862 0
-299 -231 -862 0
247 -298 863 0
-299 -231 -863 0
-247 -298 864 0
-299 231 -864 0
-247 -298 865 0
299 -231 -865 0
247 -298 866 0
299 231 -866 0
-247 298 867 0
299 231 -867 0
247 298 868 0
299 -231 -868 0
249 300 869 0
-301 233 -869 0
-249 300 870 0
-301 -233 -870 0
249 -300 871 0
-301 -233 -871 0
-249 -300 872 0
-301 233 -872 0
-249 -300 873 0
301 -233 -873 0
249 -300 874 0
301 233 -874 0
-249 300 875 0
301 233 -875 0
249 300 876 0
301 -233 -876 0
251 302 877 0
-303 271 -877 0
-251 302 878 0
-303 -271 -878 0
251 -302 879 0
-303 -271 -879 0
-251 -302 880 0
-303 271 -880 0
-251 -302 881 0
303 -271 -881 0
251 -302 882 0
303 271 -882 0
-251 302 883 0
303 271 -883 0
251 302 884 0
303 -271 -884 0
253 304 885 0
-305 273 -885 0
-253 304 886 0
-305 -273 -886 0
253 -304 887 0
-305 -273 -887 0
-253 -304 888 0
-305 273 -888 0
-253 -304 889 0
305 -273 -889 0
253 -304 890 0
305 273 -890 0
-253 304 891 0
305 273 -891 0
253 304 892 0
305 -273 -892 0
255 306 893 0
-307 275 -893 0
-255 306 894 0
-307 -275 -894 0
255 -306 895 0
-307 -275 -895 0
-255 -306 896 0
-307 275 -896 0
-255 -306 897 0
307 -275 -897 0
255 -306 898 0
307 275 -898 0
-255 306 899 0
307 275 -899 0
255 306 900 0
307 -275 -900 0
257 308 901 0
-309 277 -901 0
-257 308 902 0
-309 -277 -902 0
257 -308 903 0
-309 -277 -903 0
-257 -308 904 0
-309 277 -904 0
-257 -308 905 0
309 -277 -905 0
257 -308 906 0
309 277 -906 0
-257 308 907 0
309 277 -907 0
257 308 908 0
309 -277 -908 0
259 310 909 0
-311 279 -909 0
-259 310 910 0
-311 -279 -910 0
259 -310 911 0
-311 -279 -911 0
-259 -310 912 0
-311 279 -912 0
-259 -310 913 0
311 -279 -913 0
259 -310 914 0
311 279 -914 0
-259 310 915 0
311 279 -915 0
259 310 916 0
311 -279 -916 0
261 312 917 0
-313 281 -917 0
-261 312 918 0
-313 -281 -918 0
261 -312 919 0
-313 -281 -919 0
-261 -312 920 0
-313 281 -920 0
-261 -312 921 0
313 -281 -921 0
261 -312 922 0
313 281 -922 0
-261 312 923 0
313 281 -923 0
261 312 924 0
313 -281 -924 0
263 314 925 0
-315 283 -925 0
-263 314 926 0
-315 -283 -926 0
263 -314 927 0
-315 -283 -927 0
-263 -314 928 0
-315 283 -928 0
-263 -314 929 0
315 -283 -929 0
263 -314 930 0
315 283 -930 0
-263 314 931 0
315 283 -931 0
263 314 932 0
315 -283 -932 0
265 316 933 0
-317 285 -933 0
-265 316 934 0
-317 -285 -934 0
265 -316 935 0
-317 -285 -935 0
-265 -316 936 0
-317 285 -936 0
-265 -316 937 0
317 -285 -937 0
265 -316 938 0
317 285 -938 0
-265 316 939 0
317 285 -939 0
265 316 940 0
317 -285 -940 0
267 318 941 0
-319 287 -941 0
-267 318 942 0
-319 -287 -942 0
267 -318 943 0
-319 -287 -943 0
-267 -318 944 0
-319 287 -944 0
-267 -318 945 0
319 -287 -945 0
267 -318 946 0
319 287 -946 0
-267 318 947 0
319 287 -947 0
267 318 948 0
319 -287 -948 0
269 320 949 0
-321 289 -949 0
-269 320 950 0
-321 -289 -950 0
269 -320 951 0
-321 -289 -951 0
-269 -320 952 0
-321 289 -952 0
-269 -320 953 0
321 -289 -953 0
269 -320 954 0
321 289 -954 0
-269 320 955 0
321 289 -955 0
269 320 956 0
321 -289 -956 0
270 322 957 0
-323 291 -957 0
-270 322 958 0
-323 -291 -958 0
270 -322 959 0
-323 -291 -959 0
-270 -322 960 0
-323 291 -960 0
-270 -322 961 0
323 -291 -961 0
270 -322 962 0
323 291 -962 0
-270 322 963 0
323 291 -963 0
270 322 964 0
323 -291 -964 0
